Maximize
  - 3.4113897246204 edge_0_1_0_0 - 1.782695339239 edge_0_5_0_0
   - 2.0365276512512 edge_0_13_0_0 - 1.5576805273686 edge_0_14_0_0
   - 3.193656692265 edge_0_20_0_0 - 0.829604806617019 edge_1_2_0_0
   + 0.1094243117514026 edge_1_3_0_0 + 0.7529278348911231 edge_1_5_0_0
   - 0.3718546550315241 edge_1_7_0_0 + 0.3582969211844368 edge_1_10_0_0
   + 0.1309282312665571 edge_1_12_0_0 + 0.8422722896882894 edge_1_13_0_0
   + 1.72045695279608 edge_1_14_0_0 + 0.3998079135213484 edge_1_15_0_0
   + 0.9583175803551882 edge_1_16_0_0 + 0.5570542822224847 edge_1_17_0_0
   + 0.4194341043461415 edge_1_20_0_0 + 1.506551855274973 edge_2_3_0_0
   + 1.44174267470674 edge_2_4_0_0 + 0.3328389487055354 edge_2_8_0_0
   + 0.3021265659431026 edge_2_9_0_0 + 0.8421631060136816 edge_2_21_0_0
   + 0.9051837947872382 edge_3_2_0_0 - 2.816827753426344 edge_4_1_0_0
   + 2.73918228415026 edge_4_2_0_0 + 2.740373024978301 edge_4_3_0_0
   - 0.8050665371271629 edge_4_6_0_0 - 0.7669520499625929 edge_4_7_0_0
   + 0.8219682346660443 edge_4_8_0_0 + 0.1373326319467638 edge_4_9_0_0
   - 0.2570094593685946 edge_4_12_0_0 - 1.700101345287829 edge_4_13_0_0
   - 1.11624066690191 edge_4_14_0_0 - 2.429697650881375 edge_4_16_0_0
   + 0.9128328310354606 edge_4_21_0_0 - 0.6135881544041233 edge_5_1_0_0
   + 0.5777774018520326 edge_5_2_0_0 + 0.2343832989677493 edge_5_3_0_0
   + 1.546660981279966 edge_5_4_0_0 + 0.6927037829407324 edge_5_6_0_0
   + 2.85158064142963 edge_5_7_0_0 + 0.6875025729374836 edge_5_8_0_0
   + 1.682186617483398 edge_5_9_0_0 + 0.1417147775534992 edge_5_10_0_0
   + 1.701782672025716 edge_5_12_0_0 + 0.3173541393484684 edge_5_13_0_0
   - 0.0630960485203881 edge_5_14_0_0 + 0.2929551177229024 edge_5_15_0_0
   - 0.5923821539258177 edge_5_16_0_0 + 0.1526496867610849 edge_5_17_0_0
   - 0.5716251736295286 edge_5_20_0_0 + 3.75511300270725 edge_5_21_0_0
   - 0.3557850960362891 edge_6_8_0_0 - 0.0127426106076753 edge_6_9_0_0
   - 1.112025099404157 edge_7_1_0_0 + 0.1766258641583006 edge_7_2_0_0
   + 0.58454658385989 edge_7_3_0_0 + 1.454877587829533 edge_7_4_0_0
   + 3.214900582525898 edge_7_6_0_0 + 0.6022747388096703 edge_7_8_0_0
   + 2.075704134080872 edge_7_9_0_0 + 0.8961251904379325 edge_7_12_0_0
   - 0.9742100621693675 edge_7_13_0_0 - 0.3258858567496461 edge_7_14_0_0
   - 0.6467835467410615 edge_7_15_0_0 - 0.2236981230362773 edge_7_16_0_0
   - 0.3894245814236691 edge_7_17_0_0 - 1.157962552565044 edge_7_20_0_0
   + 2.143875022428415 edge_7_21_0_0 - 0.3576718154321863 edge_8_2_0_0
   - 0.3616895078175181 edge_8_3_0_0 - 0.6367180768679066 edge_8_4_0_0
   - 0.04023840726939 edge_8_7_0_0 + 0.9750602973838438 edge_8_9_0_0
   - 1.86705690051256 edge_9_1_0_0 + 0.4654030202652099 edge_9_2_0_0
   + 0.6104423473359502 edge_9_3_0_0 + 1.491036396678224 edge_9_4_0_0
   + 0.278514430892136 edge_9_6_0_0 + 0.1316358675240463 edge_9_7_0_0
   + 2.138586058209415 edge_9_8_0_0 + 1.136126565396048 edge_9_21_0_0
   - 0.2277034291223878 edge_10_12_0_0 - 0.5333536223535323 edge_10_15_0_0
   - 0.4268054242984308 edge_10_16_0_0 - 0.49770195159929 edge_10_17_0_0
   - 0.4000857132476721 edge_10_20_0_0 - 0.5053041483099607 edge_12_2_0_0
   - 0.4005927877541112 edge_12_3_0_0 - 0.3387423731821898 edge_12_4_0_0
   + 0.8856215748333743 edge_12_5_0_0 + 0.1942735388616758 edge_12_6_0_0
   + 0.4367280698364009 edge_12_7_0_0 - 0.0489255376577821 edge_12_8_0_0
   + 0.00788370881207648 edge_12_9_0_0 + 0.1911825285515251 edge_12_10_0_0
   - 1.187745062961689 edge_12_14_0_0 - 0.6784485130828662 edge_12_20_0_0
   + 1.417678940333668 edge_12_21_0_0 + 0.621504363727667 edge_13_1_0_0
   - 0.9054246634578009 edge_13_5_0_0 - 0.118811943761156 edge_13_10_0_0
   + 0.4133364478660437 edge_13_14_0_0 + 0.1048991990277244 edge_13_15_0_0
   - 0.5060345254856129 edge_13_16_0_0 - 0.2057929379561991 edge_13_17_0_0
   - 0.2605489716375735 edge_13_20_0_0 + 0.3567580422232724 edge_14_1_0_0
   - 0.7662589896905418 edge_14_2_0_0 + 0.7991931738524174 edge_14_4_0_0
   + 1.673608514367467 edge_14_5_0_0 + 1.26806778649447 edge_14_7_0_0
   - 1.103928637510185 edge_14_8_0_0 + 0.3934333581999915 edge_14_9_0_0
   + 0.7249602207547979 edge_14_10_0_0 + 0.1979999380100129 edge_14_12_0_0
   + 1.973304036037586 edge_14_13_0_0 + 1.012466642372291 edge_14_15_0_0
   + 0.7279559828168521 edge_14_16_0_0 + 0.9059885689052325 edge_14_17_0_0
   + 2.545804510880362 edge_14_20_0_0 + 3.482067315589116 edge_14_21_0_0
   + 0.3138009630206465 edge_15_5_0_0 - 0.7558284179828751 edge_15_8_0_0
   + 0.4240804219236277 edge_15_10_0_0 - 0.1419938782534097 edge_15_13_0_0
   - 0.2151884502268187 edge_15_14_0_0 + 1.284231438261552 edge_15_16_0_0
   + 1.233106856686061 edge_15_17_0_0 + 0.6656336673011686 edge_15_20_0_0
   + 0.4032202474039961 edge_16_5_0_0 + 0.1438775814426625 edge_16_10_0_0
   - 0.129450280717518 edge_16_12_0_0 + 0.612857301342375 edge_16_15_0_0
   + 1.056369207990254 edge_16_17_0_0 - 0.4483899656008479 edge_17_1_0_0
   - 0.3694758013179582 edge_17_5_0_0 - 0.1652075755155735 edge_17_10_0_0
   - 0.0974680271855392 edge_17_13_0_0 + 0.5490642720034952 edge_17_15_0_0
   + 1.447051864092606 edge_17_16_0_0 + 0.9958502918179025 edge_17_21_0_0
   + 0.2899087233020046 edge_20_1_0_0 - 0.2903504096603239 edge_20_3_0_0
   - 0.4913687274638464 edge_20_4_0_0 + 1.457653395173744 edge_20_5_0_0
   + 0.1668142017393235 edge_20_6_0_0 + 0.0943886452090365 edge_20_7_0_0
   - 0.5128610204832653 edge_20_9_0_0 + 1.013193591235648 edge_20_10_0_0
   + 0.2693769904022543 edge_20_12_0_0 + 0.3914253238558284 edge_20_13_0_0
   + 0.1592659862878139 edge_20_14_0_0 + 2.897896104576916 edge_20_15_0_0
   + 2.948220949821393 edge_20_16_0_0 + 3.309319047544772 edge_20_17_0_0
   + 2.605108690178986 edge_20_21_0_0 - 1.440426595921516 edge_21_4_0_0
Subject To
 one_parent_1: edge_0_1_0_0 + edge_4_1_0_0 + edge_5_1_0_0 + edge_7_1_0_0
   + edge_9_1_0_0 + edge_13_1_0_0 + edge_14_1_0_0 + edge_17_1_0_0
   + edge_20_1_0_0 = 1
 consume_one_flow_unit_1: flow_0_1_0_0 - flow_1_2_0_0 - flow_1_3_0_0
   - flow_1_5_0_0 - flow_1_7_0_0 - flow_1_10_0_0 - flow_1_12_0_0
   - flow_1_13_0_0 - flow_1_14_0_0 - flow_1_15_0_0 - flow_1_16_0_0
   - flow_1_17_0_0 - flow_1_20_0_0 + flow_4_1_0_0 + flow_5_1_0_0
   + flow_7_1_0_0 + flow_9_1_0_0 + flow_13_1_0_0 + flow_14_1_0_0
   + flow_17_1_0_0 + flow_20_1_0_0 = 1
 one_parent_2: edge_1_2_0_0 + edge_3_2_0_0 + edge_4_2_0_0 + edge_5_2_0_0
   + edge_7_2_0_0 + edge_8_2_0_0 + edge_9_2_0_0 + edge_12_2_0_0
   + edge_14_2_0_0 = 1
 consume_one_flow_unit_2: flow_1_2_0_0 - flow_2_3_0_0 - flow_2_4_0_0
   - flow_2_8_0_0 - flow_2_9_0_0 - flow_2_21_0_0 + flow_3_2_0_0
   + flow_4_2_0_0 + flow_5_2_0_0 + flow_7_2_0_0 + flow_8_2_0_0
   + flow_9_2_0_0 + flow_12_2_0_0 + flow_14_2_0_0 = 1
 one_parent_3: edge_1_3_0_0 + edge_2_3_0_0 + edge_4_3_0_0 + edge_5_3_0_0
   + edge_7_3_0_0 + edge_8_3_0_0 + edge_9_3_0_0 + edge_12_3_0_0
   + edge_20_3_0_0 = 1
 consume_one_flow_unit_3: flow_1_3_0_0 + flow_2_3_0_0 - flow_3_2_0_0
   + flow_4_3_0_0 + flow_5_3_0_0 + flow_7_3_0_0 + flow_8_3_0_0
   + flow_9_3_0_0 + flow_12_3_0_0 + flow_20_3_0_0 = 1
 one_parent_4: edge_2_4_0_0 + edge_5_4_0_0 + edge_7_4_0_0 + edge_8_4_0_0
   + edge_9_4_0_0 + edge_12_4_0_0 + edge_14_4_0_0 + edge_20_4_0_0
   + edge_21_4_0_0 = 1
 consume_one_flow_unit_4: flow_2_4_0_0 - flow_4_1_0_0 - flow_4_2_0_0
   - flow_4_3_0_0 - flow_4_6_0_0 - flow_4_7_0_0 - flow_4_8_0_0
   - flow_4_9_0_0 - flow_4_12_0_0 - flow_4_13_0_0 - flow_4_14_0_0
   - flow_4_16_0_0 - flow_4_21_0_0 + flow_5_4_0_0 + flow_7_4_0_0
   + flow_8_4_0_0 + flow_9_4_0_0 + flow_12_4_0_0 + flow_14_4_0_0
   + flow_20_4_0_0 + flow_21_4_0_0 = 1
 one_parent_5: edge_0_5_0_0 + edge_1_5_0_0 + edge_12_5_0_0 + edge_13_5_0_0
   + edge_14_5_0_0 + edge_15_5_0_0 + edge_16_5_0_0 + edge_17_5_0_0
   + edge_20_5_0_0 = 1
 consume_one_flow_unit_5: flow_0_5_0_0 + flow_1_5_0_0 - flow_5_1_0_0
   - flow_5_2_0_0 - flow_5_3_0_0 - flow_5_4_0_0 - flow_5_6_0_0
   - flow_5_7_0_0 - flow_5_8_0_0 - flow_5_9_0_0 - flow_5_10_0_0
   - flow_5_12_0_0 - flow_5_13_0_0 - flow_5_14_0_0 - flow_5_15_0_0
   - flow_5_16_0_0 - flow_5_17_0_0 - flow_5_20_0_0 - flow_5_21_0_0
   + flow_12_5_0_0 + flow_13_5_0_0 + flow_14_5_0_0 + flow_15_5_0_0
   + flow_16_5_0_0 + flow_17_5_0_0 + flow_20_5_0_0 = 1
 one_parent_6: edge_4_6_0_0 + edge_5_6_0_0 + edge_7_6_0_0 + edge_9_6_0_0
   + edge_12_6_0_0 + edge_20_6_0_0 = 1
 consume_one_flow_unit_6: flow_4_6_0_0 + flow_5_6_0_0 - flow_6_8_0_0
   - flow_6_9_0_0 + flow_7_6_0_0 + flow_9_6_0_0 + flow_12_6_0_0
   + flow_20_6_0_0 = 1
 one_parent_7: edge_1_7_0_0 + edge_4_7_0_0 + edge_5_7_0_0 + edge_8_7_0_0
   + edge_9_7_0_0 + edge_12_7_0_0 + edge_14_7_0_0 + edge_20_7_0_0 = 1
 consume_one_flow_unit_7: flow_1_7_0_0 + flow_4_7_0_0 + flow_5_7_0_0
   - flow_7_1_0_0 - flow_7_2_0_0 - flow_7_3_0_0 - flow_7_4_0_0
   - flow_7_6_0_0 - flow_7_8_0_0 - flow_7_9_0_0 - flow_7_12_0_0
   - flow_7_13_0_0 - flow_7_14_0_0 - flow_7_15_0_0 - flow_7_16_0_0
   - flow_7_17_0_0 - flow_7_20_0_0 - flow_7_21_0_0 + flow_8_7_0_0
   + flow_9_7_0_0 + flow_12_7_0_0 + flow_14_7_0_0 + flow_20_7_0_0 = 1
 one_parent_8: edge_2_8_0_0 + edge_4_8_0_0 + edge_5_8_0_0 + edge_6_8_0_0
   + edge_7_8_0_0 + edge_9_8_0_0 + edge_12_8_0_0 + edge_14_8_0_0
   + edge_15_8_0_0 = 1
 consume_one_flow_unit_8: flow_2_8_0_0 + flow_4_8_0_0 + flow_5_8_0_0
   + flow_6_8_0_0 + flow_7_8_0_0 - flow_8_2_0_0 - flow_8_3_0_0
   - flow_8_4_0_0 - flow_8_7_0_0 - flow_8_9_0_0 + flow_9_8_0_0
   + flow_12_8_0_0 + flow_14_8_0_0 + flow_15_8_0_0 = 1
 one_parent_9: edge_2_9_0_0 + edge_4_9_0_0 + edge_5_9_0_0 + edge_6_9_0_0
   + edge_7_9_0_0 + edge_8_9_0_0 + edge_12_9_0_0 + edge_14_9_0_0
   + edge_20_9_0_0 = 1
 consume_one_flow_unit_9: flow_2_9_0_0 + flow_4_9_0_0 + flow_5_9_0_0
   + flow_6_9_0_0 + flow_7_9_0_0 + flow_8_9_0_0 - flow_9_1_0_0
   - flow_9_2_0_0 - flow_9_3_0_0 - flow_9_4_0_0 - flow_9_6_0_0
   - flow_9_7_0_0 - flow_9_8_0_0 - flow_9_21_0_0 + flow_12_9_0_0
   + flow_14_9_0_0 + flow_20_9_0_0 = 1
 one_parent_10: edge_1_10_0_0 + edge_5_10_0_0 + edge_12_10_0_0
   + edge_13_10_0_0 + edge_14_10_0_0 + edge_15_10_0_0 + edge_16_10_0_0
   + edge_17_10_0_0 + edge_20_10_0_0 = 1
 consume_one_flow_unit_10: flow_1_10_0_0 + flow_5_10_0_0 - flow_10_12_0_0
   - flow_10_15_0_0 - flow_10_16_0_0 - flow_10_17_0_0 - flow_10_20_0_0
   + flow_12_10_0_0 + flow_13_10_0_0 + flow_14_10_0_0 + flow_15_10_0_0
   + flow_16_10_0_0 + flow_17_10_0_0 + flow_20_10_0_0 = 1
 one_parent_11: = 1
 consume_one_flow_unit_11: = 1
 one_parent_12: edge_1_12_0_0 + edge_4_12_0_0 + edge_5_12_0_0
   + edge_7_12_0_0 + edge_10_12_0_0 + edge_14_12_0_0 + edge_16_12_0_0
   + edge_20_12_0_0 = 1
 consume_one_flow_unit_12: flow_1_12_0_0 + flow_4_12_0_0 + flow_5_12_0_0
   + flow_7_12_0_0 + flow_10_12_0_0 - flow_12_2_0_0 - flow_12_3_0_0
   - flow_12_4_0_0 - flow_12_5_0_0 - flow_12_6_0_0 - flow_12_7_0_0
   - flow_12_8_0_0 - flow_12_9_0_0 - flow_12_10_0_0 - flow_12_14_0_0
   - flow_12_20_0_0 - flow_12_21_0_0 + flow_14_12_0_0 + flow_16_12_0_0
   + flow_20_12_0_0 = 1
 one_parent_13: edge_0_13_0_0 + edge_1_13_0_0 + edge_4_13_0_0
   + edge_5_13_0_0 + edge_7_13_0_0 + edge_14_13_0_0 + edge_15_13_0_0
   + edge_17_13_0_0 + edge_20_13_0_0 = 1
 consume_one_flow_unit_13: flow_0_13_0_0 + flow_1_13_0_0 + flow_4_13_0_0
   + flow_5_13_0_0 + flow_7_13_0_0 - flow_13_1_0_0 - flow_13_5_0_0
   - flow_13_10_0_0 - flow_13_14_0_0 - flow_13_15_0_0 - flow_13_16_0_0
   - flow_13_17_0_0 - flow_13_20_0_0 + flow_14_13_0_0 + flow_15_13_0_0
   + flow_17_13_0_0 + flow_20_13_0_0 = 1
 one_parent_14: edge_0_14_0_0 + edge_1_14_0_0 + edge_4_14_0_0
   + edge_5_14_0_0 + edge_7_14_0_0 + edge_12_14_0_0 + edge_13_14_0_0
   + edge_15_14_0_0 + edge_20_14_0_0 = 1
 consume_one_flow_unit_14: flow_0_14_0_0 + flow_1_14_0_0 + flow_4_14_0_0
   + flow_5_14_0_0 + flow_7_14_0_0 + flow_12_14_0_0 + flow_13_14_0_0
   - flow_14_1_0_0 - flow_14_2_0_0 - flow_14_4_0_0 - flow_14_5_0_0
   - flow_14_7_0_0 - flow_14_8_0_0 - flow_14_9_0_0 - flow_14_10_0_0
   - flow_14_12_0_0 - flow_14_13_0_0 - flow_14_15_0_0 - flow_14_16_0_0
   - flow_14_17_0_0 - flow_14_20_0_0 - flow_14_21_0_0 + flow_15_14_0_0
   + flow_20_14_0_0 = 1
 one_parent_15: edge_1_15_0_0 + edge_5_15_0_0 + edge_7_15_0_0
   + edge_10_15_0_0 + edge_13_15_0_0 + edge_14_15_0_0 + edge_16_15_0_0
   + edge_17_15_0_0 + edge_20_15_0_0 = 1
 consume_one_flow_unit_15: flow_1_15_0_0 + flow_5_15_0_0 + flow_7_15_0_0
   + flow_10_15_0_0 + flow_13_15_0_0 + flow_14_15_0_0 - flow_15_5_0_0
   - flow_15_8_0_0 - flow_15_10_0_0 - flow_15_13_0_0 - flow_15_14_0_0
   - flow_15_16_0_0 - flow_15_17_0_0 - flow_15_20_0_0 + flow_16_15_0_0
   + flow_17_15_0_0 + flow_20_15_0_0 = 1
 one_parent_16: edge_1_16_0_0 + edge_4_16_0_0 + edge_5_16_0_0
   + edge_7_16_0_0 + edge_10_16_0_0 + edge_13_16_0_0 + edge_14_16_0_0
   + edge_15_16_0_0 + edge_17_16_0_0 + edge_20_16_0_0 = 1
 consume_one_flow_unit_16: flow_1_16_0_0 + flow_4_16_0_0 + flow_5_16_0_0
   + flow_7_16_0_0 + flow_10_16_0_0 + flow_13_16_0_0 + flow_14_16_0_0
   + flow_15_16_0_0 - flow_16_5_0_0 - flow_16_10_0_0 - flow_16_12_0_0
   - flow_16_15_0_0 - flow_16_17_0_0 + flow_17_16_0_0 + flow_20_16_0_0 = 1
 one_parent_17: edge_1_17_0_0 + edge_5_17_0_0 + edge_7_17_0_0
   + edge_10_17_0_0 + edge_13_17_0_0 + edge_14_17_0_0 + edge_15_17_0_0
   + edge_16_17_0_0 + edge_20_17_0_0 = 1
 consume_one_flow_unit_17: flow_1_17_0_0 + flow_5_17_0_0 + flow_7_17_0_0
   + flow_10_17_0_0 + flow_13_17_0_0 + flow_14_17_0_0 + flow_15_17_0_0
   + flow_16_17_0_0 - flow_17_1_0_0 - flow_17_5_0_0 - flow_17_10_0_0
   - flow_17_13_0_0 - flow_17_15_0_0 - flow_17_16_0_0 - flow_17_21_0_0
   + flow_20_17_0_0 = 1
 one_parent_18: = 1
 consume_one_flow_unit_18: = 1
 one_parent_19: = 1
 consume_one_flow_unit_19: = 1
 one_parent_20: edge_0_20_0_0 + edge_1_20_0_0 + edge_5_20_0_0
   + edge_7_20_0_0 + edge_10_20_0_0 + edge_12_20_0_0 + edge_13_20_0_0
   + edge_14_20_0_0 + edge_15_20_0_0 = 1
 consume_one_flow_unit_20: flow_0_20_0_0 + flow_1_20_0_0 + flow_5_20_0_0
   + flow_7_20_0_0 + flow_10_20_0_0 + flow_12_20_0_0 + flow_13_20_0_0
   + flow_14_20_0_0 + flow_15_20_0_0 - flow_20_1_0_0 - flow_20_3_0_0
   - flow_20_4_0_0 - flow_20_5_0_0 - flow_20_6_0_0 - flow_20_7_0_0
   - flow_20_9_0_0 - flow_20_10_0_0 - flow_20_12_0_0 - flow_20_13_0_0
   - flow_20_14_0_0 - flow_20_15_0_0 - flow_20_16_0_0 - flow_20_17_0_0
   - flow_20_21_0_0 = 1
 one_parent_21: edge_2_21_0_0 + edge_4_21_0_0 + edge_5_21_0_0
   + edge_7_21_0_0 + edge_9_21_0_0 + edge_12_21_0_0 + edge_14_21_0_0
   + edge_17_21_0_0 + edge_20_21_0_0 = 1
 consume_one_flow_unit_21: flow_2_21_0_0 + flow_4_21_0_0 + flow_5_21_0_0
   + flow_7_21_0_0 + flow_9_21_0_0 + flow_12_21_0_0 + flow_14_21_0_0
   + flow_17_21_0_0 + flow_20_21_0_0 - flow_21_4_0_0 = 1
 root_flow: flow_0_1_0_0 + flow_0_5_0_0 + flow_0_13_0_0 + flow_0_14_0_0
   + flow_0_20_0_0 = 21
 inactive_no_flow_0_1_0_0: flow_0_1_0_0 - 1000 edge_0_1_0_0 <= 0
 inactive_no_flow_0_5_0_0: flow_0_5_0_0 - 1000 edge_0_5_0_0 <= 0
 inactive_no_flow_0_13_0_0: flow_0_13_0_0 - 1000 edge_0_13_0_0 <= 0
 inactive_no_flow_0_14_0_0: flow_0_14_0_0 - 1000 edge_0_14_0_0 <= 0
 inactive_no_flow_0_20_0_0: flow_0_20_0_0 - 1000 edge_0_20_0_0 <= 0
 inactive_no_flow_1_2_0_0: flow_1_2_0_0 - 1000 edge_1_2_0_0 <= 0
 inactive_no_flow_1_3_0_0: flow_1_3_0_0 - 1000 edge_1_3_0_0 <= 0
 inactive_no_flow_1_5_0_0: flow_1_5_0_0 - 1000 edge_1_5_0_0 <= 0
 inactive_no_flow_1_7_0_0: flow_1_7_0_0 - 1000 edge_1_7_0_0 <= 0
 inactive_no_flow_1_10_0_0: flow_1_10_0_0 - 1000 edge_1_10_0_0 <= 0
 inactive_no_flow_1_12_0_0: flow_1_12_0_0 - 1000 edge_1_12_0_0 <= 0
 inactive_no_flow_1_13_0_0: flow_1_13_0_0 - 1000 edge_1_13_0_0 <= 0
 inactive_no_flow_1_14_0_0: flow_1_14_0_0 - 1000 edge_1_14_0_0 <= 0
 inactive_no_flow_1_15_0_0: flow_1_15_0_0 - 1000 edge_1_15_0_0 <= 0
 inactive_no_flow_1_16_0_0: flow_1_16_0_0 - 1000 edge_1_16_0_0 <= 0
 inactive_no_flow_1_17_0_0: flow_1_17_0_0 - 1000 edge_1_17_0_0 <= 0
 inactive_no_flow_1_20_0_0: flow_1_20_0_0 - 1000 edge_1_20_0_0 <= 0
 inactive_no_flow_2_3_0_0: flow_2_3_0_0 - 1000 edge_2_3_0_0 <= 0
 inactive_no_flow_2_4_0_0: flow_2_4_0_0 - 1000 edge_2_4_0_0 <= 0
 inactive_no_flow_2_8_0_0: flow_2_8_0_0 - 1000 edge_2_8_0_0 <= 0
 inactive_no_flow_2_9_0_0: flow_2_9_0_0 - 1000 edge_2_9_0_0 <= 0
 inactive_no_flow_2_21_0_0: flow_2_21_0_0 - 1000 edge_2_21_0_0 <= 0
 inactive_no_flow_3_2_0_0: flow_3_2_0_0 - 1000 edge_3_2_0_0 <= 0
 inactive_no_flow_4_1_0_0: flow_4_1_0_0 - 1000 edge_4_1_0_0 <= 0
 inactive_no_flow_4_2_0_0: flow_4_2_0_0 - 1000 edge_4_2_0_0 <= 0
 inactive_no_flow_4_3_0_0: flow_4_3_0_0 - 1000 edge_4_3_0_0 <= 0
 inactive_no_flow_4_6_0_0: flow_4_6_0_0 - 1000 edge_4_6_0_0 <= 0
 inactive_no_flow_4_7_0_0: flow_4_7_0_0 - 1000 edge_4_7_0_0 <= 0
 inactive_no_flow_4_8_0_0: flow_4_8_0_0 - 1000 edge_4_8_0_0 <= 0
 inactive_no_flow_4_9_0_0: flow_4_9_0_0 - 1000 edge_4_9_0_0 <= 0
 inactive_no_flow_4_12_0_0: flow_4_12_0_0 - 1000 edge_4_12_0_0 <= 0
 inactive_no_flow_4_13_0_0: flow_4_13_0_0 - 1000 edge_4_13_0_0 <= 0
 inactive_no_flow_4_14_0_0: flow_4_14_0_0 - 1000 edge_4_14_0_0 <= 0
 inactive_no_flow_4_16_0_0: flow_4_16_0_0 - 1000 edge_4_16_0_0 <= 0
 inactive_no_flow_4_21_0_0: flow_4_21_0_0 - 1000 edge_4_21_0_0 <= 0
 inactive_no_flow_5_1_0_0: flow_5_1_0_0 - 1000 edge_5_1_0_0 <= 0
 inactive_no_flow_5_2_0_0: flow_5_2_0_0 - 1000 edge_5_2_0_0 <= 0
 inactive_no_flow_5_3_0_0: flow_5_3_0_0 - 1000 edge_5_3_0_0 <= 0
 inactive_no_flow_5_4_0_0: flow_5_4_0_0 - 1000 edge_5_4_0_0 <= 0
 inactive_no_flow_5_6_0_0: flow_5_6_0_0 - 1000 edge_5_6_0_0 <= 0
 inactive_no_flow_5_7_0_0: flow_5_7_0_0 - 1000 edge_5_7_0_0 <= 0
 inactive_no_flow_5_8_0_0: flow_5_8_0_0 - 1000 edge_5_8_0_0 <= 0
 inactive_no_flow_5_9_0_0: flow_5_9_0_0 - 1000 edge_5_9_0_0 <= 0
 inactive_no_flow_5_10_0_0: flow_5_10_0_0 - 1000 edge_5_10_0_0 <= 0
 inactive_no_flow_5_12_0_0: flow_5_12_0_0 - 1000 edge_5_12_0_0 <= 0
 inactive_no_flow_5_13_0_0: flow_5_13_0_0 - 1000 edge_5_13_0_0 <= 0
 inactive_no_flow_5_14_0_0: flow_5_14_0_0 - 1000 edge_5_14_0_0 <= 0
 inactive_no_flow_5_15_0_0: flow_5_15_0_0 - 1000 edge_5_15_0_0 <= 0
 inactive_no_flow_5_16_0_0: flow_5_16_0_0 - 1000 edge_5_16_0_0 <= 0
 inactive_no_flow_5_17_0_0: flow_5_17_0_0 - 1000 edge_5_17_0_0 <= 0
 inactive_no_flow_5_20_0_0: flow_5_20_0_0 - 1000 edge_5_20_0_0 <= 0
 inactive_no_flow_5_21_0_0: flow_5_21_0_0 - 1000 edge_5_21_0_0 <= 0
 inactive_no_flow_6_8_0_0: flow_6_8_0_0 - 1000 edge_6_8_0_0 <= 0
 inactive_no_flow_6_9_0_0: flow_6_9_0_0 - 1000 edge_6_9_0_0 <= 0
 inactive_no_flow_7_1_0_0: flow_7_1_0_0 - 1000 edge_7_1_0_0 <= 0
 inactive_no_flow_7_2_0_0: flow_7_2_0_0 - 1000 edge_7_2_0_0 <= 0
 inactive_no_flow_7_3_0_0: flow_7_3_0_0 - 1000 edge_7_3_0_0 <= 0
 inactive_no_flow_7_4_0_0: flow_7_4_0_0 - 1000 edge_7_4_0_0 <= 0
 inactive_no_flow_7_6_0_0: flow_7_6_0_0 - 1000 edge_7_6_0_0 <= 0
 inactive_no_flow_7_8_0_0: flow_7_8_0_0 - 1000 edge_7_8_0_0 <= 0
 inactive_no_flow_7_9_0_0: flow_7_9_0_0 - 1000 edge_7_9_0_0 <= 0
 inactive_no_flow_7_12_0_0: flow_7_12_0_0 - 1000 edge_7_12_0_0 <= 0
 inactive_no_flow_7_13_0_0: flow_7_13_0_0 - 1000 edge_7_13_0_0 <= 0
 inactive_no_flow_7_14_0_0: flow_7_14_0_0 - 1000 edge_7_14_0_0 <= 0
 inactive_no_flow_7_15_0_0: flow_7_15_0_0 - 1000 edge_7_15_0_0 <= 0
 inactive_no_flow_7_16_0_0: flow_7_16_0_0 - 1000 edge_7_16_0_0 <= 0
 inactive_no_flow_7_17_0_0: flow_7_17_0_0 - 1000 edge_7_17_0_0 <= 0
 inactive_no_flow_7_20_0_0: flow_7_20_0_0 - 1000 edge_7_20_0_0 <= 0
 inactive_no_flow_7_21_0_0: flow_7_21_0_0 - 1000 edge_7_21_0_0 <= 0
 inactive_no_flow_8_2_0_0: flow_8_2_0_0 - 1000 edge_8_2_0_0 <= 0
 inactive_no_flow_8_3_0_0: flow_8_3_0_0 - 1000 edge_8_3_0_0 <= 0
 inactive_no_flow_8_4_0_0: flow_8_4_0_0 - 1000 edge_8_4_0_0 <= 0
 inactive_no_flow_8_7_0_0: flow_8_7_0_0 - 1000 edge_8_7_0_0 <= 0
 inactive_no_flow_8_9_0_0: flow_8_9_0_0 - 1000 edge_8_9_0_0 <= 0
 inactive_no_flow_9_1_0_0: flow_9_1_0_0 - 1000 edge_9_1_0_0 <= 0
 inactive_no_flow_9_2_0_0: flow_9_2_0_0 - 1000 edge_9_2_0_0 <= 0
 inactive_no_flow_9_3_0_0: flow_9_3_0_0 - 1000 edge_9_3_0_0 <= 0
 inactive_no_flow_9_4_0_0: flow_9_4_0_0 - 1000 edge_9_4_0_0 <= 0
 inactive_no_flow_9_6_0_0: flow_9_6_0_0 - 1000 edge_9_6_0_0 <= 0
 inactive_no_flow_9_7_0_0: flow_9_7_0_0 - 1000 edge_9_7_0_0 <= 0
 inactive_no_flow_9_8_0_0: flow_9_8_0_0 - 1000 edge_9_8_0_0 <= 0
 inactive_no_flow_9_21_0_0: flow_9_21_0_0 - 1000 edge_9_21_0_0 <= 0
 inactive_no_flow_10_12_0_0: flow_10_12_0_0 - 1000 edge_10_12_0_0 <= 0
 inactive_no_flow_10_15_0_0: flow_10_15_0_0 - 1000 edge_10_15_0_0 <= 0
 inactive_no_flow_10_16_0_0: flow_10_16_0_0 - 1000 edge_10_16_0_0 <= 0
 inactive_no_flow_10_17_0_0: flow_10_17_0_0 - 1000 edge_10_17_0_0 <= 0
 inactive_no_flow_10_20_0_0: flow_10_20_0_0 - 1000 edge_10_20_0_0 <= 0
 inactive_no_flow_12_2_0_0: flow_12_2_0_0 - 1000 edge_12_2_0_0 <= 0
 inactive_no_flow_12_3_0_0: flow_12_3_0_0 - 1000 edge_12_3_0_0 <= 0
 inactive_no_flow_12_4_0_0: flow_12_4_0_0 - 1000 edge_12_4_0_0 <= 0
 inactive_no_flow_12_5_0_0: flow_12_5_0_0 - 1000 edge_12_5_0_0 <= 0
 inactive_no_flow_12_6_0_0: flow_12_6_0_0 - 1000 edge_12_6_0_0 <= 0
 inactive_no_flow_12_7_0_0: flow_12_7_0_0 - 1000 edge_12_7_0_0 <= 0
 inactive_no_flow_12_8_0_0: flow_12_8_0_0 - 1000 edge_12_8_0_0 <= 0
 inactive_no_flow_12_9_0_0: flow_12_9_0_0 - 1000 edge_12_9_0_0 <= 0
 inactive_no_flow_12_10_0_0: flow_12_10_0_0 - 1000 edge_12_10_0_0 <= 0
 inactive_no_flow_12_14_0_0: flow_12_14_0_0 - 1000 edge_12_14_0_0 <= 0
 inactive_no_flow_12_20_0_0: flow_12_20_0_0 - 1000 edge_12_20_0_0 <= 0
 inactive_no_flow_12_21_0_0: flow_12_21_0_0 - 1000 edge_12_21_0_0 <= 0
 inactive_no_flow_13_1_0_0: flow_13_1_0_0 - 1000 edge_13_1_0_0 <= 0
 inactive_no_flow_13_5_0_0: flow_13_5_0_0 - 1000 edge_13_5_0_0 <= 0
 inactive_no_flow_13_10_0_0: flow_13_10_0_0 - 1000 edge_13_10_0_0 <= 0
 inactive_no_flow_13_14_0_0: flow_13_14_0_0 - 1000 edge_13_14_0_0 <= 0
 inactive_no_flow_13_15_0_0: flow_13_15_0_0 - 1000 edge_13_15_0_0 <= 0
 inactive_no_flow_13_16_0_0: flow_13_16_0_0 - 1000 edge_13_16_0_0 <= 0
 inactive_no_flow_13_17_0_0: flow_13_17_0_0 - 1000 edge_13_17_0_0 <= 0
 inactive_no_flow_13_20_0_0: flow_13_20_0_0 - 1000 edge_13_20_0_0 <= 0
 inactive_no_flow_14_1_0_0: flow_14_1_0_0 - 1000 edge_14_1_0_0 <= 0
 inactive_no_flow_14_2_0_0: flow_14_2_0_0 - 1000 edge_14_2_0_0 <= 0
 inactive_no_flow_14_4_0_0: flow_14_4_0_0 - 1000 edge_14_4_0_0 <= 0
 inactive_no_flow_14_5_0_0: flow_14_5_0_0 - 1000 edge_14_5_0_0 <= 0
 inactive_no_flow_14_7_0_0: flow_14_7_0_0 - 1000 edge_14_7_0_0 <= 0
 inactive_no_flow_14_8_0_0: flow_14_8_0_0 - 1000 edge_14_8_0_0 <= 0
 inactive_no_flow_14_9_0_0: flow_14_9_0_0 - 1000 edge_14_9_0_0 <= 0
 inactive_no_flow_14_10_0_0: flow_14_10_0_0 - 1000 edge_14_10_0_0 <= 0
 inactive_no_flow_14_12_0_0: flow_14_12_0_0 - 1000 edge_14_12_0_0 <= 0
 inactive_no_flow_14_13_0_0: flow_14_13_0_0 - 1000 edge_14_13_0_0 <= 0
 inactive_no_flow_14_15_0_0: flow_14_15_0_0 - 1000 edge_14_15_0_0 <= 0
 inactive_no_flow_14_16_0_0: flow_14_16_0_0 - 1000 edge_14_16_0_0 <= 0
 inactive_no_flow_14_17_0_0: flow_14_17_0_0 - 1000 edge_14_17_0_0 <= 0
 inactive_no_flow_14_20_0_0: flow_14_20_0_0 - 1000 edge_14_20_0_0 <= 0
 inactive_no_flow_14_21_0_0: flow_14_21_0_0 - 1000 edge_14_21_0_0 <= 0
 inactive_no_flow_15_5_0_0: flow_15_5_0_0 - 1000 edge_15_5_0_0 <= 0
 inactive_no_flow_15_8_0_0: flow_15_8_0_0 - 1000 edge_15_8_0_0 <= 0
 inactive_no_flow_15_10_0_0: flow_15_10_0_0 - 1000 edge_15_10_0_0 <= 0
 inactive_no_flow_15_13_0_0: flow_15_13_0_0 - 1000 edge_15_13_0_0 <= 0
 inactive_no_flow_15_14_0_0: flow_15_14_0_0 - 1000 edge_15_14_0_0 <= 0
 inactive_no_flow_15_16_0_0: flow_15_16_0_0 - 1000 edge_15_16_0_0 <= 0
 inactive_no_flow_15_17_0_0: flow_15_17_0_0 - 1000 edge_15_17_0_0 <= 0
 inactive_no_flow_15_20_0_0: flow_15_20_0_0 - 1000 edge_15_20_0_0 <= 0
 inactive_no_flow_16_5_0_0: flow_16_5_0_0 - 1000 edge_16_5_0_0 <= 0
 inactive_no_flow_16_10_0_0: flow_16_10_0_0 - 1000 edge_16_10_0_0 <= 0
 inactive_no_flow_16_12_0_0: flow_16_12_0_0 - 1000 edge_16_12_0_0 <= 0
 inactive_no_flow_16_15_0_0: flow_16_15_0_0 - 1000 edge_16_15_0_0 <= 0
 inactive_no_flow_16_17_0_0: flow_16_17_0_0 - 1000 edge_16_17_0_0 <= 0
 inactive_no_flow_17_1_0_0: flow_17_1_0_0 - 1000 edge_17_1_0_0 <= 0
 inactive_no_flow_17_5_0_0: flow_17_5_0_0 - 1000 edge_17_5_0_0 <= 0
 inactive_no_flow_17_10_0_0: flow_17_10_0_0 - 1000 edge_17_10_0_0 <= 0
 inactive_no_flow_17_13_0_0: flow_17_13_0_0 - 1000 edge_17_13_0_0 <= 0
 inactive_no_flow_17_15_0_0: flow_17_15_0_0 - 1000 edge_17_15_0_0 <= 0
 inactive_no_flow_17_16_0_0: flow_17_16_0_0 - 1000 edge_17_16_0_0 <= 0
 inactive_no_flow_17_21_0_0: flow_17_21_0_0 - 1000 edge_17_21_0_0 <= 0
 inactive_no_flow_20_1_0_0: flow_20_1_0_0 - 1000 edge_20_1_0_0 <= 0
 inactive_no_flow_20_3_0_0: flow_20_3_0_0 - 1000 edge_20_3_0_0 <= 0
 inactive_no_flow_20_4_0_0: flow_20_4_0_0 - 1000 edge_20_4_0_0 <= 0
 inactive_no_flow_20_5_0_0: flow_20_5_0_0 - 1000 edge_20_5_0_0 <= 0
 inactive_no_flow_20_6_0_0: flow_20_6_0_0 - 1000 edge_20_6_0_0 <= 0
 inactive_no_flow_20_7_0_0: flow_20_7_0_0 - 1000 edge_20_7_0_0 <= 0
 inactive_no_flow_20_9_0_0: flow_20_9_0_0 - 1000 edge_20_9_0_0 <= 0
 inactive_no_flow_20_10_0_0: flow_20_10_0_0 - 1000 edge_20_10_0_0 <= 0
 inactive_no_flow_20_12_0_0: flow_20_12_0_0 - 1000 edge_20_12_0_0 <= 0
 inactive_no_flow_20_13_0_0: flow_20_13_0_0 - 1000 edge_20_13_0_0 <= 0
 inactive_no_flow_20_14_0_0: flow_20_14_0_0 - 1000 edge_20_14_0_0 <= 0
 inactive_no_flow_20_15_0_0: flow_20_15_0_0 - 1000 edge_20_15_0_0 <= 0
 inactive_no_flow_20_16_0_0: flow_20_16_0_0 - 1000 edge_20_16_0_0 <= 0
 inactive_no_flow_20_17_0_0: flow_20_17_0_0 - 1000 edge_20_17_0_0 <= 0
 inactive_no_flow_20_21_0_0: flow_20_21_0_0 - 1000 edge_20_21_0_0 <= 0
 inactive_no_flow_21_4_0_0: flow_21_4_0_0 - 1000 edge_21_4_0_0 <= 0
Bounds
Binaries
 edge_0_1_0_0 edge_0_5_0_0 edge_0_13_0_0 edge_0_14_0_0 edge_0_20_0_0
 edge_1_2_0_0 edge_1_3_0_0 edge_1_5_0_0 edge_1_7_0_0 edge_1_10_0_0
 edge_1_12_0_0 edge_1_13_0_0 edge_1_14_0_0 edge_1_15_0_0 edge_1_16_0_0
 edge_1_17_0_0 edge_1_20_0_0 edge_2_3_0_0 edge_2_4_0_0 edge_2_8_0_0
 edge_2_9_0_0 edge_2_21_0_0 edge_3_2_0_0 edge_4_1_0_0 edge_4_2_0_0
 edge_4_3_0_0 edge_4_6_0_0 edge_4_7_0_0 edge_4_8_0_0 edge_4_9_0_0
 edge_4_12_0_0 edge_4_13_0_0 edge_4_14_0_0 edge_4_16_0_0 edge_4_21_0_0
 edge_5_1_0_0 edge_5_2_0_0 edge_5_3_0_0 edge_5_4_0_0 edge_5_6_0_0
 edge_5_7_0_0 edge_5_8_0_0 edge_5_9_0_0 edge_5_10_0_0 edge_5_12_0_0
 edge_5_13_0_0 edge_5_14_0_0 edge_5_15_0_0 edge_5_16_0_0 edge_5_17_0_0
 edge_5_20_0_0 edge_5_21_0_0 edge_6_8_0_0 edge_6_9_0_0 edge_7_1_0_0
 edge_7_2_0_0 edge_7_3_0_0 edge_7_4_0_0 edge_7_6_0_0 edge_7_8_0_0
 edge_7_9_0_0 edge_7_12_0_0 edge_7_13_0_0 edge_7_14_0_0 edge_7_15_0_0
 edge_7_16_0_0 edge_7_17_0_0 edge_7_20_0_0 edge_7_21_0_0 edge_8_2_0_0
 edge_8_3_0_0 edge_8_4_0_0 edge_8_7_0_0 edge_8_9_0_0 edge_9_1_0_0
 edge_9_2_0_0 edge_9_3_0_0 edge_9_4_0_0 edge_9_6_0_0 edge_9_7_0_0
 edge_9_8_0_0 edge_9_21_0_0 edge_10_12_0_0 edge_10_15_0_0 edge_10_16_0_0
 edge_10_17_0_0 edge_10_20_0_0 edge_12_2_0_0 edge_12_3_0_0 edge_12_4_0_0
 edge_12_5_0_0 edge_12_6_0_0 edge_12_7_0_0 edge_12_8_0_0 edge_12_9_0_0
 edge_12_10_0_0 edge_12_14_0_0 edge_12_20_0_0 edge_12_21_0_0 edge_13_1_0_0
 edge_13_5_0_0 edge_13_10_0_0 edge_13_14_0_0 edge_13_15_0_0 edge_13_16_0_0
 edge_13_17_0_0 edge_13_20_0_0 edge_14_1_0_0 edge_14_2_0_0 edge_14_4_0_0
 edge_14_5_0_0 edge_14_7_0_0 edge_14_8_0_0 edge_14_9_0_0 edge_14_10_0_0
 edge_14_12_0_0 edge_14_13_0_0 edge_14_15_0_0 edge_14_16_0_0 edge_14_17_0_0
 edge_14_20_0_0 edge_14_21_0_0 edge_15_5_0_0 edge_15_8_0_0 edge_15_10_0_0
 edge_15_13_0_0 edge_15_14_0_0 edge_15_16_0_0 edge_15_17_0_0 edge_15_20_0_0
 edge_16_5_0_0 edge_16_10_0_0 edge_16_12_0_0 edge_16_15_0_0 edge_16_17_0_0
 edge_17_1_0_0 edge_17_5_0_0 edge_17_10_0_0 edge_17_13_0_0 edge_17_15_0_0
 edge_17_16_0_0 edge_17_21_0_0 edge_20_1_0_0 edge_20_3_0_0 edge_20_4_0_0
 edge_20_5_0_0 edge_20_6_0_0 edge_20_7_0_0 edge_20_9_0_0 edge_20_10_0_0
 edge_20_12_0_0 edge_20_13_0_0 edge_20_14_0_0 edge_20_15_0_0 edge_20_16_0_0
 edge_20_17_0_0 edge_20_21_0_0 edge_21_4_0_0
End
